NAME: random_points
TYPE: TSP
DIMENSION: 11
EDGE_WEIGHT_TYPE: EUC_2D
NODE_COORD_SECTION
1 559 338
2 873 505
3 580 618
4 81 463
5 926 602
6 623 50
7 441 748
8 494 420
9 552 419
10 918 43
11 439 810
EOF
